certificates/rado_a6_c106_N18.cnf
c Rad2 upper bound instance: x1 + 6*x2 - x3 = 106, interval [1,18]
p cnf 18 80
1 3 18 0
-1 -3 -18 0
2 4 18 0
-2 -4 -18 0
3 5 18 0
-3 -5 -18 0
4 6 18 0
-4 -6 -18 0
1 5 17 0
-1 -5 -17 0
5 7 18 0
-5 -7 -18 0
2 6 17 0
-2 -6 -17 0
6 8 18 0
-6 -8 -18 0
3 7 17 0
-3 -7 -17 0
7 9 18 0
-7 -9 -18 0
4 8 17 0
-4 -8 -17 0
8 10 18 0
-8 -10 -18 0
5 9 17 0
-5 -9 -17 0
9 11 18 0
-9 -11 -18 0
6 10 17 0
-6 -10 -17 0
10 12 18 0
-10 -12 -18 0
1 11 16 0
-1 -11 -16 0
7 11 17 0
-7 -11 -17 0
11 13 18 0
-11 -13 -18 0
2 12 16 0
-2 -12 -16 0
8 12 17 0
-8 -12 -17 0
12 14 18 0
-12 -14 -18 0
3 13 16 0
-3 -13 -16 0
9 13 17 0
-9 -13 -17 0
13 15 18 0
-13 -15 -18 0
4 14 16 0
-4 -14 -16 0
10 14 17 0
-10 -14 -17 0
14 16 18 0
-14 -16 -18 0
5 15 16 0
-5 -15 -16 0
11 15 17 0
-11 -15 -17 0
15 17 18 0
-15 -17 -18 0
6 16 0
-6 -16 0
12 16 17 0
-12 -16 -17 0
16 18 0
-16 -18 0
1 15 17 0
-1 -15 -17 0
7 16 17 0
-7 -16 -17 0
13 17 0
-13 -17 0
2 15 18 0
-2 -15 -18 0
8 16 18 0
-8 -16 -18 0
14 17 18 0
-14 -17 -18 0
