certificates/rado_a6_c106_N18.drat
-18 0
16 0
-6 0
4 0
8 0
-14 0
-17 0
12 0
10 0
0
